
Gurobi 7.5.2 (linux64) logging started Sat Jul  7 16:00:12 2018

Changed value of parameter LogFile to result/ilp/simNo_3-n_100-m_40-s_4-minVAF_0.05-cov_10000-k_2-fn_0.10-fp_0.0001-na_0.15.ILP.gurobiSolverLog
   Prev: gurobi.log  Default: 
Changed value of parameter TimeLimit to 86400.0
   Prev: 1e+100  Min: 0.0  Max: 1e+100  Default: 1e+100
Optimize a model with 639293 rows, 10765 columns and 1940420 nonzeros
Variable types: 0 continuous, 10765 integer (10765 binary)
Coefficient statistics:
  Matrix range     [2e-04, 4e+00]
  Objective range  [4e-01, 9e+00]
  Bounds range     [1e+00, 1e+00]
  RHS range        [2e-01, 2e+00]
Found heuristic solution: objective -14602.56411
Presolve removed 131773 rows and 1022 columns (presolve time = 5s) ...
Presolve removed 132350 rows and 1022 columns (presolve time = 12s) ...
Presolve removed 190050 rows and 1599 columns (presolve time = 16s) ...
Presolve removed 190050 rows and 1599 columns
Presolve time: 16.81s
Presolved: 449243 rows, 9166 columns, 1349854 nonzeros
Variable types: 0 continuous, 9166 integer (9166 binary)
Presolved: 9166 rows, 458409 columns, 1359020 nonzeros

Presolve removed 9166 rows and 458409 columns

Root simplex log...

Iteration    Objective       Primal Inf.    Dual Inf.      Time
       0    1.4649908e+01   0.000000e+00   7.060300e+04     21s
   26971   -2.2660303e+02   0.000000e+00   4.586783e+04     25s
   29559   -2.3077860e+02   0.000000e+00   0.000000e+00     27s
   29559   -2.3077860e+02   0.000000e+00   0.000000e+00     28s

Root relaxation: objective -2.307786e+02, 29559 iterations, 9.33 seconds
Total elapsed time = 67.24s
Total elapsed time = 116.42s

    Nodes    |    Current Node    |     Objective Bounds      |     Work
 Expl Unexpl |  Obj  Depth IntInf | Incumbent    BestBd   Gap | It/Node Time

     0     0 -230.77860    0 1050 -14602.564 -230.77860  98.4%     -  163s
H    0     0                    -352.2793152 -230.77860  34.5%     -  167s
H    0     0                    -268.4091188 -230.77860  14.0%     -  169s
     0     0 -234.10891    0  979 -268.40912 -234.10891  12.8%     -  217s
     0     0 -234.10891    0  969 -268.40912 -234.10891  12.8%     -  229s
     0     0 -237.43838    0  977 -268.40912 -237.43838  11.5%     -  319s
     0     0 -237.43838    0  984 -268.40912 -237.43838  11.5%     -  330s
     0     0 -238.46654    0 1301 -268.40912 -238.46654  11.2%     -  463s
     0     0 -238.81884    0 1812 -268.40912 -238.81884  11.0%     -  547s
     0     0 -238.81884    0 1815 -268.40912 -238.81884  11.0%     -  551s
     0     0 -240.36341    0 1157 -268.40912 -240.36341  10.4%     -  661s
     0     0 -240.61265    0  826 -268.40912 -240.61265  10.4%     -  684s
     0     0 -240.73317    0 1148 -268.40912 -240.73317  10.3%     -  710s
     0     0 -240.80182    0 1754 -268.40912 -240.80182  10.3%     -  767s
     0     0 -240.80182    0 1755 -268.40912 -240.80182  10.3%     -  771s
     0     0 -241.35181    0 1773 -268.40912 -241.35181  10.1%     -  847s
H    0     0                    -266.1894718 -241.35181  9.33%     -  853s
     0     0 -241.55455    0 1743 -266.18947 -241.55455  9.25%     -  865s
     0     0 -241.55455    0 1742 -266.18947 -241.55455  9.25%     -  869s
     0     0 -241.71974    0 1152 -266.18947 -241.71974  9.19%     -  893s
     0     0 -241.76108    0 1710 -266.18947 -241.76108  9.18%     -  914s
     0     0 -241.76108    0 1711 -266.18947 -241.76108  9.18%     -  916s
     0     0 -243.30528    0 1148 -266.18947 -243.30528  8.60%     - 1082s
     0     0 -243.69260    0 1185 -266.18947 -243.69260  8.45%     - 1164s
     0     0 -243.69260    0 1186 -266.18947 -243.69260  8.45%     - 1168s
     0     0 -244.67198    0 1211 -266.18947 -244.67198  8.08%     - 1452s
H    0     0                    -263.8674680 -244.67198  7.27%     - 1462s
     0     0 -244.91725    0 1813 -263.86747 -244.91725  7.18%     - 1529s
     0     0 -244.98745    0 1223 -263.86747 -244.98745  7.16%     - 1537s
     0     0 -244.98745    0 1228 -263.86747 -244.98745  7.16%     - 1543s
     0     0 -246.06442    0 1266 -263.86747 -246.06442  6.75%     - 1665s
     0     0 -246.12844    0 1281 -263.86747 -246.12844  6.72%     - 1695s
     0     0 -246.15886    0 1253 -263.86747 -246.15886  6.71%     - 1705s
     0     0 -246.15886    0 1253 -263.86747 -246.15886  6.71%     - 1708s
     0     0 -248.25030    0 1195 -263.86747 -248.25030  5.92%     - 2245s
     0     0 -248.45853    0 1221 -263.86747 -248.45853  5.84%     - 2310s
     0     0 -248.47160    0 1282 -263.86747 -248.47160  5.83%     - 2323s
     0     0 -248.47160    0 1286 -263.86747 -248.47160  5.83%     - 2328s
     0     0 -249.64102    0 1134 -263.86747 -249.64102  5.39%     - 3107s
     0     0 -249.96699    0 1286 -263.86747 -249.96699  5.27%     - 3391s
     0     0 -250.05574    0 1310 -263.86747 -250.05574  5.23%     - 3421s
     0     0 -250.05574    0 1313 -263.86747 -250.05574  5.23%     - 3425s
     0     0 -250.82582    0 1251 -263.86747 -250.82582  4.94%     - 4154s
     0     0 -250.92385    0 1285 -263.86747 -250.92385  4.91%     - 4213s
     0     0 -250.92550    0 1285 -263.86747 -250.92550  4.90%     - 4219s
     0     0 -251.20885    0 1300 -263.86747 -251.20885  4.80%     - 4464s
     0     0 -251.40183    0 1322 -263.86747 -251.40183  4.72%     - 4769s
     0     0 -251.56316    0 1323 -263.86747 -251.56316  4.66%     - 4871s
     0     0 -251.56878    0 1316 -263.86747 -251.56878  4.66%     - 4888s
     0     0 -251.56878    0 1316 -263.86747 -251.56878  4.66%     - 4891s
     0     0 -252.12370    0 1307 -263.86747 -252.12370  4.45%     - 5351s
     0     0 -252.12370    0 1305 -263.86747 -252.12370  4.45%     - 5362s
     0     0 -252.16677    0  651 -263.86747 -252.16677  4.43%     - 5382s
     0     0 -252.16677    0  650 -263.86747 -252.16677  4.43%     - 5387s
     0     0 -252.69457    0  869 -263.86747 -252.69457  4.23%     - 6103s
     0     0 -252.72969    0  875 -263.86747 -252.72969  4.22%     - 6165s
     0     0 -252.81791    0  878 -263.86747 -252.81791  4.19%     - 6286s
     0     0 -252.81791    0  877 -263.86747 -252.81791  4.19%     - 6292s
     0     0 -252.88950    0  864 -263.86747 -252.88950  4.16%     - 6457s
     0     0 -252.92369    0  866 -263.86747 -252.92369  4.15%     - 6571s
     0     0 -252.92369    0  880 -263.86747 -252.92369  4.15%     - 6583s
     0     0 -252.92396    0  869 -263.86747 -252.92396  4.15%     - 6603s
     0     0 -252.93796    0  875 -263.86747 -252.93796  4.14%     - 6621s
     0     0 -252.94104    0  872 -263.86747 -252.94104  4.14%     - 6638s
     0     0 -252.94104    0  872 -263.86747 -252.94104  4.14%     - 6640s
     0     0 -252.95132    0  875 -263.86747 -252.95132  4.14%     - 6677s
     0     0 -252.95132    0  873 -263.86747 -252.95132  4.14%     - 6686s
     0     0 -253.44037    0  753 -263.86747 -253.44037  3.95%     - 9213s
     0     0 -253.70172    0  858 -263.86747 -253.70172  3.85%     - 10649s
     0     0 -253.70172    0  856 -263.86747 -253.70172  3.85%     - 10654s
     0     0 -254.08490    0  589 -263.86747 -254.08490  3.71%     - 15381s
     0     0 -254.36897    0  668 -263.86747 -254.36897  3.60%     - 20023s
     0     0 -254.37117    0  688 -263.86747 -254.37117  3.60%     - 20046s
     0     0 -254.38603    0  637 -263.86747 -254.38603  3.59%     - 20112s
     0     0 -254.38603    0  644 -263.86747 -254.38603  3.59%     - 20122s
     0     0 -254.38603    0  634 -263.86747 -254.38603  3.59%     - 21476s
     0     0 -254.38603    0  634 -263.86747 -254.38603  3.59%     - 21718s
     0     2 -254.38706    0  617 -263.86747 -254.38706  3.59%     - 22173s
     1     3 -255.02982    1  535 -263.86747 -254.42128  3.58% 11051 22178s
     2     4 -257.52562    2  358 -263.86747 -254.42128  3.58%  6339 22183s
     4     4     cutoff    3      -263.86747 -254.42128  3.58%  3394 22186s
     7     5 -258.31835    5  335 -263.86747 -254.42128  3.58%  2097 22190s
     9     5 -259.05823    6  335 -263.86747 -254.42128  3.58%  1714 22198s
    11     5 -259.87210    7  375 -263.86747 -254.42128  3.58%  1447 22200s
    16     6 -263.31256   10  312 -263.86747 -254.42128  3.58%  1055 22208s
    20     4 -255.33213    1  639 -263.86747 -255.03939  3.35%  1049 22240s
    21     5 -258.55333    2  564 -263.86747 -255.03939  3.35%  4799 23492s
    22     6 -261.08455    3  371 -263.86747 -255.03939  3.35%  4831 23573s
    23     5     cutoff    4      -263.86747 -255.03939  3.35%  4858 23621s
    24     4     cutoff    4      -263.86747 -255.03939  3.35%  6450 24232s
    25     5 -258.57989    3  553 -263.86747 -255.03939  3.35%  6569 24341s
    26     6 -261.06929    4  376 -263.86747 -255.03939  3.35%  9779 25973s
    27     7 -261.95715    5  367 -263.86747 -255.03939  3.35%  9460 25998s
    28     8 -262.69703    6  362 -263.86747 -255.03939  3.35%  9149 26005s
    29     7     cutoff    7      -263.86747 -255.03939  3.35%  9062 26110s
    30     6     cutoff    7      -263.86747 -255.03939  3.35% 18546 32710s
    31     5     cutoff    6      -263.86747 -255.03939  3.35% 20800 34963s
    32     4     cutoff    5      -263.86747 -255.03939  3.35% 25823 40900s
    33     5 -255.09236    2  476 -263.86747 -255.09236  3.33% 25144 40950s
    34     6 -257.31088    3  333 -263.86747 -255.09236  3.33% 24767 41166s
    35     7 -259.53053    4  319 -263.86747 -255.09236  3.33% 24077 41175s
    36     8 -261.19527    5  279 -263.86747 -255.09236  3.33% 23467 41224s
    37     9 -261.75018    5  314 -263.86747 -255.09236  3.33% 22996 41313s
    38    10 -262.49006    6  310 -263.86747 -255.09236  3.33% 22398 41318s
    39    11 -263.41491    7  308 -263.86747 -255.09236  3.33% 21898 41358s
    40    10     cutoff    7      -263.86747 -255.09236  3.33% 21367 41369s
    41     9     cutoff    8      -263.86747 -255.09236  3.33% 20853 41375s
    43     7     cutoff    6      -263.86747 -255.09236  3.33% 20092 41530s
    44     8 -255.64728    3  553 -263.86747 -255.33842  3.23% 19748 41604s
    45     9 -257.06484    4  368 -263.86747 -255.33842  3.23% 19445 41724s
    46    10 -258.05135    5  353 -263.86747 -255.33842  3.23% 19232 41918s
    47     9     cutoff    5      -263.86747 -255.33842  3.23% 19340 42434s
    48    10 -258.79124    6  360 -263.86747 -255.33842  3.23% 19111 42709s
    49    11 -259.53112    7  319 -263.86747 -255.33842  3.23% 18951 42937s
    50    12 -259.60048    8  351 -263.86747 -255.33842  3.23% 18581 42946s
    51    11     cutoff    7      -263.86747 -255.33842  3.23% 18665 43390s
    52    10     cutoff    8      -263.86747 -255.33842  3.23% 18698 43773s
    53    11 -261.75077    6  364 -263.86747 -255.33842  3.23% 18740 44232s
    54    12 -262.86059    7  334 -263.86747 -255.33842  3.23% 18450 44289s
    55    11     cutoff    7      -263.86747 -255.33842  3.23% 18708 44905s
    56    12 -262.86059    8  327 -263.86747 -255.33842  3.23% 18376 44935s
    57    11     cutoff    8      -263.86747 -255.33842  3.23% 18320 45217s
    59    11     cutoff    9      -263.86747 -255.33842  3.23% 18051 45601s
    61    11     cutoff   11      -263.86747 -255.33842  3.23% 17467 45608s
    62    10     cutoff   11      -263.86747 -255.33842  3.23% 18267 47173s
    63     9     cutoff   10      -263.86747 -255.33842  3.23% 18327 47579s
    64    10 -256.88124    2  626 -263.86747 -255.65471  3.11% 18322 47991s
    65    11 -259.79955    3 1129 -263.86747 -255.65471  3.11% 19526 50502s
    66    12 -258.03373    3 1294 -263.86747 -255.65471  3.11% 19696 51185s
    67    13 -259.88646    4 1138 -263.86747 -255.65471  3.11% 19916 51874s
    68    14 -260.39643    5  366 -263.86747 -255.65471  3.11% 19760 52055s
    69    13     cutoff    6      -263.86747 -255.65471  3.11% 19942 52777s
    70    12     cutoff    6      -263.86747 -255.65471  3.11% 20087 53356s
    71    13 -261.42446    5 1189 -263.86747 -255.65471  3.11% 24869 64875s
    72    14 -263.15915    6  808 -263.86747 -255.65471  3.11% 24663 65071s
    73    13     cutoff    7      -263.86747 -255.65471  3.11% 24363 65099s
    74    14 -263.53463    7  558 -263.86747 -255.65471  3.11% 24083 65151s
    75    15 -263.53471    8  507 -263.86747 -255.65471  3.11% 23766 65159s
    76    16 -263.78278    9  843 -263.86747 -255.65471  3.11% 23489 65198s
    77    15     cutoff    9      -263.86747 -255.65471  3.11% 23397 65468s
    78    14     cutoff    8      -263.86747 -255.65471  3.11% 23281 65740s
    81    13 -256.80540    4 1123 -263.86747 -256.80540  2.68% 22859 66524s
    82    14 -257.31255    5  300 -263.86747 -256.80540  2.68% 22670 66687s
    83    15 -260.64202    6  296 -263.86747 -256.80540  2.68% 22442 66762s
    84    16 -261.75184    7  288 -263.86747 -256.80540  2.68% 22218 66821s
    85    17 -262.86167    8  287 -263.86747 -256.80540  2.68% 21964 66831s
    86    16     cutoff    8      -263.86747 -256.80540  2.68% 22200 67732s
    87    15     cutoff    7      -263.86747 -256.80540  2.68% 24100 70963s
    88    16 -258.42237    6  312 -263.86747 -256.80540  2.68% 27527 82186s

Cutting planes:
  Gomory: 2
  Zero half: 282

Explored 90 nodes (3339590 simplex iterations) in 86400.20 seconds
Thread count was 1 (of 80 available processors)

Solution count 5: -263.867 -266.189 -268.409 ... -14602.6

Time limit reached
Best objective -2.638674680278e+02, best bound -2.568054046969e+02, gap 2.6764%
